1 15
2 8
3 2
4 2
5 1
6 2
7 4
8 3
9 7
10 5
11 4
12 4
13 4
14 11
15 5
16 1
17 1
18 24
19 8
20 1
21 2
22 2
23 3
24 1
25 2
26 1
27 2
28 1
29 2
30 1
31 1
32 1
33 2
34 26
35 2
36 7
37 2
38 4
39 2
40 1
41 4
42 1
43 1
44 1
45 1
46 1
47 1
48 3
49 1
50 2
51 2
52 1
53 1
54 1
55 2
56 1
57 1
58 7
59 2
60 1
61 1
62 1
63 1
64 1
65 2
66 2
67 1
68 2
69 1
70 1
71 2
72 1
73 2
74 1
75 1
76 1
77 1
78 2
79 2
80 1
81 1
82 2
83 1
84 1
85 2
86 1
87 1
88 1
89 2
90 2
91 1
92 1
93 1
94 2
95 4
96 2
97 1
98 1
99 2
100 2
101 3
102 2
103 2
104 3
105 2
106 2
107 2
108 2
109 2
110 2
111 1
112 2
113 3
114 2
115 2
116 1
117 2
118 3
119 1
120 6
121 2
122 2
123 2
124 1
125 2
126 2
127 3
128 2
129 2
130 2
131 2
132 2
133 2
134 2
135 2
136 2
137 1
138 2
139 2
140 2
141 2
142 2
143 2
144 2
145 2
146 4
147 3
148 2
149 2
150 3
151 4
152 3
153 2
154 2
155 3
156 2
157 3
158 3
159 3
160 2
161 2
162 2
163 2
164 3
165 3
166 3
167 2
168 4
169 3
170 2
171 2
172 2
173 2
174 3
175 3
176 3
177 3
178 3
179 31
180 3
181 2
182 2
183 3
184 2
185 3
186 2
187 3
188 3
189 3
190 3
191 3
192 4
193 3
194 3
195 30
196 4
197 3
198 15
199 3
200 3
201 4
202 2
203 3
204 2
205 3
206 3
207 3
208 6
209 3
210 3
211 3
212 3
213 3
214 3
215 4
216 3
217 3
218 3
219 2
220 4
221 7
222 3
223 4
224 3
225 4
226 4
227 3
228 5
229 4
230 3
231 3
232 3
233 3
234 3
235 3
236 3
237 4
238 4
239 4
240 3
241 3
242 4
243 3
244 3
245 4
246 4
247 4
248 4
249 3
250 3
251 4
252 3
253 4
254 4
255 4
256 5
257 3
258 3
259 3
260 4
261 3
262 3
263 3
264 5
265 4
266 4
267 4
268 4
269 3
270 3
271 5
272 5
273 6
274 4
275 5
276 5
277 4
278 16
279 4
280 3
281 4
282 4
283 4
284 4
285 5
286 3
287 4
288 4
289 4
290 4
291 5
292 5
293 4
294 4
295 4
296 6
297 4
298 7
299 4
300 4
301 5
302 5
303 5
304 5
305 5
306 5
307 6
308 7
309 4
310 5
311 6
312 5
313 5
314 4
315 4
316 5
317 4
318 4
319 4
320 5
321 4
322 5
323 4
324 29
325 4
326 4
327 5
328 4
329 5
330 6
331 4
332 4
333 5
334 4
335 4
336 5
337 4
338 4
339 7
340 7
341 11
342 5
343 5
344 5
345 4
346 4
347 5
348 4
349 5
350 14
351 6
352 6
353 5
354 6
355 6
356 6
357 4
358 5
359 6
360 7
361 5
362 5
363 6
364 6
365 30
366 4
367 6
368 5
369 5
370 4
371 7
372 7
373 5
374 5
375 6
376 5
377 5
378 5
379 5
380 5
381 5
382 5
383 6
384 5
385 6
386 5
387 5
388 5
389 6
390 5
391 8
392 5
393 7
394 11
395 5
396 7
397 5
398 5
399 5
400 6
401 5
402 7
403 5
404 9
405 8
406 6
407 5
408 5
409 8
410 8
411 7
412 8
413 6
414 5
415 6
416 5
417 6
418 5
419 7
420 5
421 6
422 8
423 5
424 8
425 6
426 7
427 6
428 6
429 6
430 6
431 6
432 5
433 8
434 11
435 5
436 5
437 7
438 7
439 7
440 10
441 6
442 7
443 7
444 8
445 7
446 6
447 6
448 6
449 6
450 7
451 6
452 6
453 9
454 5
455 6
456 6
457 6
458 6
459 7
460 6
461 6
462 6
463 42
464 78
465 16
466 8
467 9
468 6
469 5
470 9
471 7
472 7
473 6
474 6
475 7
476 7
477 7
478 6
479 7
480 6
481 7
482 13
483 6
484 7
485 9
486 7
487 6
488 8
489 9
490 10
491 9
492 9
493 7
494 6
495 10
496 9
497 9
498 8
499 7
500 7
